(set-option :print-success false)
(set-logic QF_UF)
(declare-sort x35 0)
(declare-sort x54 0)
(declare-fun x60 () x54)
(declare-fun x40 (x54 x54) x54)
(declare-fun x4 () x54)
(declare-fun x97 (x54 x54) x54)
(declare-fun x113 () x54)
(declare-fun x84 () x54)
(declare-fun x108 () x54)
(assert (let ((x42 (x97 x60 x108)) (x101 (x97 x108 x60)) (x93 (x97 x108 x4)) (x151 (x97 x108 x108)) (x30 (x97 x84 x4)) (x69 (x97 x84 x108)) (x142 (x97 x113 x113)) (x85 (x97 x113 x84)) (x115 (x97 x84 x60)) (x51 (x97 x60 x113)) (x39 (x97 x84 x84)) (x50 (x97 x60 x4)) (x105 (x97 x84 x113)) (x1 (x97 x4 x84)) (x91 (x97 x4 x4)) (x80 (x97 x4 x108)) (x32 (x97 x4 x113)) (x150 (x97 x108 x113)) (x98 (x97 x113 x108)) (x45 (x97 x60 x84)) (x130 (x97 x108 x84)) (x106 (x97 x4 x60)) (x133 (x97 x60 x60)) (x73 (x97 x113 x4)) (x149 (x97 x113 x60))) (let ((x82 (= x4 x133)) (x143 (= x108 x73)) (x128 (= x4 x142)) (x138 (= x108 x115)) (x117 (= x115 x84)) (x107 (= x130 x108)) (x56 (= x42 x113)) (x29 (= x84 x51)) (x129 (= x85 x113)) (x15 (= x106 x84)) (x55 (= x42 x4)) (x141 (= x60 x151)) (x145 (= x84 x80)) (x26 (= x98 x113)) (x61 (= x1 x60)) (x78 (= x4 x51)) (x96 (= x4 x73)) (x59 (= x4 x150)) (x127 (= x108 x91)) (x43 (= x113 x80)) (x157 (= x60 x91)) (x46 (= x60 x142)) (x139 (= x108 x50)) (x131 (= x4 x98)) (x140 (= x51 x60)) (x6 (= x73 x60)) (x16 (= x60 x93)) (x109 (= x60 x42)) (x57 (= x50 x113)) (x9 (= x133 x60)) (x25 (= x30 x84)) (x148 (= x98 x84)) (x103 (= x113 x133)) (x134 (= x50 x4)) (x37 (= x106 x4)) (x13 (= x69 x4)) (x47 (= x149 x108)) (x118 (= x84 x32)) (x67 (= x105 x84)) (x22 (= x60 x150)) (x159 (= x73 x84)) (x120 (= x80 x60)) (x63 (= x84 x39)) (x14 (= x101 x60)) (x100 (= x80 x108)) (x20 (= x69 x60)) (x95 (= x84 x151)) (x135 (= x84 x85)) (x5 (= x4 x149)) (x33 (= x101 x108)) (x154 (= x51 x108)) (x158 (= x60 x98)) (x7 (= x113 x105)) (x121 (= x142 x108)) (x79 (= x113 x32)) (x72 (= x91 x113)) (x126 (= x4 x91)) (x65 (= x45 x84)) (x24 (= x4 x30)) (x44 (= x73 x113)) (x137 (= x133 x84)) (x27 (= x150 x84)) (x81 (= x51 x113)) (x11 (= x130 x60)) (x8 (= x149 x84)) (x68 (= x115 x113)) (x144 (= x84 x91)) (x10 (= x106 x113)) (x123 (= x39 x113)) (x111 (= x42 x108)) (x90 (= x105 x108)) (x116 (= x4 x151)) (x146 (= x4 x39)) (x155 (= x30 x113)) (x77 (= x84 x130)) (x41 (= x1 x4)) (x36 (= x113 x101)) (x92 (= x93 x84)) (x62 (= x60 x115)) (x147 (= x84 x50)) (x48 (= x106 x60)) (x52 (= x4 x32)) (x125 (= x113 x45)) (x17 (= x113 x1)) (x38 (= x101 x4)) (x119 (= x32 x108)) (x156 (= x108 x39)) (x99 (= x84 x101)) (x70 (= x108 x1)) (x34 (= x93 x113)) (x104 (= x108 x98)) (x12 (= x4 x130)) (x114 (= x60 x149)) (x19 (= x113 x69)) (x28 (= x85 x60)) (x86 (= x142 x84)) (x74 (= x69 x108)) (x31 (= x105 x60)) (x112 (= x85 x4)) (x23 (= x60 x39)) (x136 (= x42 x84)) (x49 (= x105 x4)) (x76 (= x108 x45)) (x58 (= x84 x69)) (x2 (= x142 x113)) (x102 (= x108 x106)) (x87 (= x60 x32)) (x53 (= x30 x60)) (x122 (= x93 x4)) (x110 (= x108 x151)) (x71 (= x108 x93)) (x83 (= x151 x113)) (x124 (= x4 x45)) (x18 (= x113 x130)) (x21 (= x113 x150)) (x153 (= x4 x80)) (x89 (= x60 x45)) (x66 (= x149 x113)) (x75 (= x133 x108)) (x3 (= x108 x150)) (x94 (= x85 x108)) (x64 (= x84 x1)) (x88 (= x30 x108)) (x132 (= x50 x60)) (x152 (= x115 x4))) (and (and (and (and (and (and (and (or (or (or x112 (or x124 x146)) x41) x12) (or (or (or x49 (or x152 x146)) x24) x13)) (and (and (or (or x155 (or (or x68 x123) x7)) x19) (or (or x17 (or (or x123 x125) x129)) x18)) (and (and (or x20 (or x53 (or (or x23 x62) x31))) (or (or (or (or x23 x89) x28) x61) x11)) (and (or (or x64 (or x135 (or x65 x63))) x77) (or (or x25 (or (or x117 x63) x67)) x58))))) (and (or (or (or x90 (or x156 x138)) x88) x74) (or (or x70 (or (or x76 x156) x94)) x107))) (and (and (or (or x139 (or x154 (or x75 x76))) x111) (or (or (or (or x138 x75) x47) x102) x33)) (and (and (and (or (or x10 (or (or x103 x68) x66)) x36) (or (or (or (or x103 x125) x81) x57) x56)) (and (and (or (or (or x8 (or x117 x137)) x15) x99) (or (or (or x29 (or x65 x137)) x147) x136)) (and (or x109 (or x132 (or x140 (or x9 x89)))) (or x14 (or (or x114 (or x9 x62)) x48))))) (and (or x55 (or x134 (or (or x124 x82) x78))) (or x38 (or (or (or x82 x152) x5) x37)))))) (and (and (or (or (or x121 (or x154 x90)) x119) x3) (or (or x143 (or (or x47 x94) x121)) x104)) (and (and (and (and (or (or x87 (or (or x31 x140) x46)) x22) (or (or (or x46 (or x28 x114)) x6) x158)) (and (or x27 (or (or (or x67 x29) x86) x118)) (or (or (or (or x8 x135) x86) x159) x148))) (and (or x26 (or (or (or x66 x129) x2) x44)) (or (or x79 (or (or x7 x81) x2)) x21))) (and (or (or (or (or x49 x78) x128) x52) x59) (or (or (or x128 (or x112 x5)) x96) x131))))) (and (and (or (or (or x119 (or x102 x70)) x127) x100) (or x71 (or x127 (or (or x88 x139) x143)))) (and (and (and (or x43 (or x72 (or x79 (or x10 x17)))) (or (or (or x44 (or x155 x57)) x72) x34)) (and (and (or x120 (or x157 (or (or x61 x48) x87))) (or (or x157 (or x6 (or x132 x53))) x16)) (and (or x145 (or x144 (or x118 (or x64 x15)))) (or x92 (or (or x159 (or x25 x147)) x144))))) (and (or (or (or x52 (or x37 x41)) x126) x153) (or x122 (or x126 (or x96 (or x24 x134)))))))) (and (and (or x110 (or (or (or x111 x74) x104) x100)) (or x110 (or x71 (or (or x107 x33) x3)))) (and (and (or (or (or (or x12 x38) x59) x122) x116) (or x116 (or x153 (or (or x13 x55) x131)))) (and (and (or x83 (or (or (or x56 x19) x26) x43)) (or (or (or (or x36 x18) x21) x34) x83)) (and (and (or x95 (or (or (or x58 x136) x148) x145)) (or x95 (or (or x27 (or x99 x77)) x92))) (and (or (or (or (or x109 x20) x158) x120) x141) (or (or x16 (or x22 (or x11 x14))) x141))))))))))
(assert (let ((x45 (x97 x113 x60)) (x133 (x97 x113 x108)) (x105 (= x60 (x97 x60 x60))) (x130 (x97 x60 x4)) (x42 (x97 x108 x60)) (x156 (x97 x4 x60)) (x65 (x97 x4 x113)) (x23 (x97 x113 x84)) (x117 (= x4 (x97 x4 x4))) (x149 (= x108 (x97 x108 x108))) (x85 (= x113 (x97 x113 x113))) (x1 (x97 x84 x4)) (x39 (x97 x84 x60)) (x50 (x97 x108 x84)) (x123 (x97 x113 x4)) (x89 (x97 x60 x108)) (x69 (x97 x60 x113)) (x63 (= (x97 x84 x84) x84)) (x115 (x97 x60 x84)) (x30 (x97 x84 x113)) (x146 (x97 x4 x84)) (x9 (x97 x108 x4)) (x51 (x97 x4 x108)) (x62 (x97 x108 x113)) (x137 (x97 x84 x108))) (and (or (or (or (= x51 x4) (or (= x113 x133) (or (= x89 x60) (= x84 x137)))) x149) (or x149 (or (= x4 x9) (or (= x62 x113) (or (= x60 x42) (= x50 x84)))))) (and (and (or (or (or (or x85 (or (= x84 x23) (= x60 x45))) (= x4 x123)) (= x108 x133)) (or (or (or x85 (or (= x69 x60) (= x84 x30))) (= x4 x65)) (= x108 x62))) (and (or (or (= x89 x108) (or (or (or x105 (= x84 x115)) (= x113 x69)) (= x130 x4))) (or (= x108 x42) (or (or (or x105 (= x84 x39)) (= x113 x45)) (= x4 x156)))) (or (or (= x108 x137) (or (= x4 x1) (or (or x63 (= x39 x60)) (= x30 x113)))) (or (= x108 x50) (or (or (= x113 x23) (or (= x60 x115) x63)) (= x146 x4)))))) (or (or (or x117 (or (= x113 x123) (or (= x84 x1) (= x60 x130)))) (= x9 x108)) (or (or x117 (or (or (= x60 x156) (= x84 x146)) (= x113 x65))) (= x51 x108)))))))
(assert (let ((x105 (x97 x4 x4)) (x30 (x97 x108 x108)) (x115 (x97 x113 x113)) (x39 (x97 x60 x60)) (x63 (x97 x84 x84))) (or (and (not (= x108 x30)) (and (not (= x105 x108)) (and (and (not (= x63 x108)) (not (= x108 x39))) (not (= x108 x115))))) (or (or (and (not (= x113 x30)) (and (and (and (not (= x113 x63)) (not (= x39 x113))) (not (= x113 x115))) (not (= x113 x105)))) (or (and (not (= x30 x60)) (and (and (not (= x115 x60)) (and (not (= x39 x60)) (not (= x60 x63)))) (not (= x105 x60)))) (and (and (and (not (= x84 x115)) (and (not (= x84 x63)) (not (= x39 x84)))) (not (= x105 x84))) (not (= x84 x30))))) (and (not (= x4 x30)) (and (not (= x105 x4)) (and (not (= x4 x115)) (and (not (= x63 x4)) (not (= x4 x39))))))))))
(assert (let ((x133 (x97 x4 x4)) (x85 (x97 x4 x60)) (x137 (x97 x60 x4)) (x30 (x97 x108 x84)) (x156 (x97 x4 x113)) (x123 (x97 x60 x113)) (x51 (x97 x108 x4)) (x117 (x97 x84 x4)) (x50 (x97 x84 x108)) (x39 (x97 x60 x84)) (x89 (x97 x113 x4)) (x149 (x97 x108 x108)) (x130 (x97 x84 x113)) (x69 (x97 x84 x60)) (x62 (x97 x113 x108)) (x45 (x97 x113 x60)) (x23 (x97 x60 x60)) (x9 (x97 x4 x108)) (x65 (x97 x108 x113)) (x42 (x97 x60 x108)) (x146 (x97 x113 x113)) (x63 (x97 x84 x84)) (x115 (x97 x113 x84)) (x105 (x97 x4 x84)) (x1 (x97 x108 x60))) (and (and (and (and (and (and (and (not (= x146 x89)) (and (not (= x45 x62)) (and (not (= x89 x45)) (and (not (= x146 x45)) (and (and (and (not (= x115 x45)) (not (= x146 x115))) (not (= x115 x89))) (not (= x115 x62))))))) (not (= x62 x146))) (not (= x62 x89))) (and (and (and (not (= x50 x130)) (and (and (and (not (= x69 x117)) (and (and (not (= x50 x63)) (and (not (= x63 x117)) (and (not (= x63 x69)) (not (= x63 x130))))) (not (= x69 x130)))) (not (= x50 x69))) (not (= x130 x117)))) (not (= x117 x50))) (and (not (= x42 x137)) (and (and (not (= x137 x123)) (and (and (and (and (not (= x39 x42)) (and (not (= x137 x39)) (and (not (= x39 x123)) (not (= x39 x23))))) (not (= x23 x123))) (not (= x23 x137))) (not (= x23 x42)))) (not (= x123 x42)))))) (and (and (not (= x156 x9)) (and (and (not (= x9 x85)) (and (and (not (= x156 x85)) (and (not (= x9 x105)) (and (not (= x133 x105)) (and (not (= x156 x105)) (not (= x105 x85)))))) (not (= x85 x133)))) (not (= x156 x133)))) (not (= x133 x9)))) (and (not (= x149 x51)) (and (not (= x149 x65)) (and (not (= x51 x65)) (and (and (and (and (not (= x30 x149)) (and (not (= x30 x51)) (and (not (= x65 x30)) (not (= x1 x30))))) (not (= x1 x65))) (not (= x1 x51))) (not (= x149 x1))))))) (and (and (and (and (and (not (= x1 x85)) (and (and (and (and (not (= x23 x85)) (and (and (not (= x1 x69)) (and (and (not (= x69 x23)) (not (= x45 x69))) (not (= x85 x69)))) (not (= x23 x45)))) (not (= x23 x1))) (not (= x45 x85))) (not (= x1 x45)))) (and (not (= x30 x105)) (and (and (and (and (and (not (= x39 x115)) (and (and (not (= x63 x105)) (and (not (= x39 x63)) (not (= x115 x63)))) (not (= x30 x63)))) (not (= x39 x105))) (not (= x39 x30))) (not (= x115 x105))) (not (= x115 x30))))) (and (and (not (= x146 x65)) (and (and (and (not (= x156 x123)) (and (not (= x146 x123)) (and (and (and (not (= x130 x146)) (not (= x130 x123))) (not (= x156 x130))) (not (= x65 x130))))) (not (= x65 x123))) (not (= x156 x146)))) (not (= x156 x65)))) (and (and (and (not (= x89 x133)) (and (and (not (= x133 x137)) (and (not (= x89 x137)) (and (and (and (not (= x89 x117)) (not (= x137 x117))) (not (= x133 x117))) (not (= x117 x51))))) (not (= x51 x137)))) (not (= x89 x51))) (not (= x51 x133)))) (and (and (and (and (not (= x149 x42)) (and (not (= x42 x9)) (and (not (= x42 x62)) (and (and (not (= x9 x50)) (and (not (= x42 x50)) (not (= x50 x62)))) (not (= x149 x50)))))) (not (= x9 x62))) (not (= x149 x62))) (not (= x149 x9)))))))
(assert (let ((x123 (x97 x113 x60)) (x89 (x97 x4 x113)) (x45 (x97 x60 x113)) (x137 (x97 x4 x60)) (x51 (x97 x4 x108)) (x30 (x97 x84 x108)) (x1 (x97 x60 x108)) (x146 (x97 x113 x113)) (x50 (x97 x108 x84)) (x130 (x97 x113 x84)) (x105 (x97 x84 x4)) (x156 (x97 x113 x4)) (x133 (x97 x4 x4)) (x42 (x97 x108 x60)) (x117 (x97 x4 x84)) (x9 (x97 x108 x4)) (x65 (x97 x113 x108)) (x63 (x97 x84 x84)) (x69 (x97 x60 x84)) (x85 (x97 x60 x4)) (x62 (x97 x108 x113)) (x115 (x97 x84 x113)) (x23 (x97 x60 x60)) (x39 (x97 x84 x60)) (x149 (x97 x108 x108))) (and (and (and (and (and (and (and (and (or (or (or (= x63 x113) (or (= x63 x60) (= x63 x84))) (= x4 x63)) (= x63 x108)) (or (= x39 x108) (or (= x4 x39) (or (= x39 x113) (or (= x39 x84) (= x60 x39)))))) (or (or (or (= x115 x113) (or (= x115 x60) (= x84 x115))) (= x4 x115)) (= x108 x115))) (or (or (or (= x113 x105) (or (= x105 x84) (= x105 x60))) (= x105 x4)) (= x105 x108))) (or (= x30 x108) (or (or (= x113 x30) (or (= x60 x30) (= x84 x30))) (= x30 x4)))) (and (or (= x1 x108) (or (= x4 x1) (or (or (= x1 x60) (= x1 x84)) (= x113 x1)))) (and (and (or (or (= x4 x45) (or (= x113 x45) (or (= x45 x60) (= x84 x45)))) (= x108 x45)) (and (or (= x108 x23) (or (= x4 x23) (or (= x113 x23) (or (= x23 x84) (= x23 x60))))) (or (= x69 x108) (or (= x69 x4) (or (= x69 x113) (or (= x69 x84) (= x60 x69))))))) (or (or (= x4 x85) (or (= x113 x85) (or (= x60 x85) (= x84 x85)))) (= x85 x108))))) (and (or (or (or (= x113 x65) (or (= x84 x65) (= x65 x60))) (= x65 x4)) (= x108 x65)) (and (or (= x156 x108) (or (= x4 x156) (or (= x156 x113) (or (= x60 x156) (= x84 x156))))) (and (or (or (= x4 x146) (or (or (= x146 x60) (= x84 x146)) (= x146 x113))) (= x146 x108)) (and (or (or (or (or (= x123 x60) (= x123 x84)) (= x113 x123)) (= x123 x4)) (= x108 x123)) (or (= x108 x130) (or (or (= x130 x113) (or (= x60 x130) (= x130 x84))) (= x4 x130)))))))) (and (and (and (and (or (or (= x4 x137) (or (= x113 x137) (or (= x137 x84) (= x60 x137)))) (= x137 x108)) (or (or (= x4 x117) (or (= x117 x113) (or (= x117 x84) (= x117 x60)))) (= x108 x117))) (or (= x89 x108) (or (= x89 x4) (or (or (= x89 x60) (= x84 x89)) (= x113 x89))))) (or (= x133 x108) (or (or (or (= x133 x60) (= x133 x84)) (= x113 x133)) (= x133 x4)))) (or (= x51 x108) (or (or (= x113 x51) (or (= x51 x84) (= x60 x51))) (= x4 x51))))) (and (and (and (or (or (or (= x113 x62) (or (= x60 x62) (= x84 x62))) (= x4 x62)) (= x108 x62)) (and (or (or (= x4 x50) (or (= x50 x113) (or (= x50 x84) (= x50 x60)))) (= x108 x50)) (or (or (= x4 x42) (or (or (= x42 x84) (= x60 x42)) (= x113 x42))) (= x108 x42)))) (or (= x9 x108) (or (= x4 x9) (or (= x9 x113) (or (= x60 x9) (= x84 x9)))))) (or (= x149 x108) (or (or (or (= x60 x149) (= x149 x84)) (= x149 x113)) (= x4 x149)))))))
(assert (let ((x63 (x97 x84 x84)) (x156 (x97 x4 x113)) (x85 (x97 x113 x113)) (x149 (x97 x108 x108)) (x123 (x97 x4 x60)) (x146 (x97 x60 x4)) (x105 (x97 x60 x60)) (x39 (x97 x60 x84)) (x65 (x97 x113 x4)) (x30 (x97 x113 x84)) (x117 (x97 x4 x4)) (x89 (x97 x84 x108)) (x23 (x97 x113 x60)) (x9 (x97 x4 x108)) (x1 (x97 x4 x84)) (x133 (x97 x108 x60)) (x62 (x97 x108 x4)) (x130 (x97 x84 x4)) (x115 (x97 x84 x60)) (x45 (x97 x60 x113)) (x51 (x97 x60 x108)) (x137 (x97 x108 x84)) (x42 (x97 x113 x108)) (x50 (x97 x108 x113)) (x69 (x97 x84 x113))) (and (and (and (or (or (or (not (= x85 x85)) (or (not (= x69 x30)) (not (= x23 x45)))) (not (= x65 x156))) (not (= x50 x42))) (and (or (not (= x137 x89)) (or (not (= x130 x1)) (or (or (not (= x63 x63)) (not (= x39 x115))) (not (= x69 x30))))) (or (or (not (= x146 x123)) (or (or (not (= x105 x105)) (not (= x39 x115))) (not (= x45 x23)))) (not (= x133 x51))))) (or (or (or (or (not (= x130 x1)) (not (= x123 x146))) (not (= x156 x65))) (not (= x117 x117))) (not (= x62 x9)))) (or (not (= x149 x149)) (or (or (not (= x50 x42)) (or (not (= x51 x133)) (not (= x137 x89)))) (not (= x62 x9)))))))
(assert (or (or (or (not (= (x97 x4 (x97 x4 x108)) x108)) (or (or (not (= x113 (x97 x4 (x97 x4 x113)))) (or (not (= x84 (x97 x4 (x97 x4 x84)))) (not (= x60 (x97 x4 (x97 x4 x60)))))) (not (= (x97 x4 (x97 x4 x4)) x4)))) (or (or (or (or (not (= x4 (x97 x84 (x97 x84 x4)))) (or (not (= x113 (x97 x84 (x97 x84 x113)))) (or (not (= (x97 x84 (x97 x84 x84)) x84)) (not (= x60 (x97 x84 (x97 x84 x60))))))) (not (= x108 (x97 x84 (x97 x84 x108))))) (or (not (= x108 (x97 x60 (x97 x60 x108)))) (or (or (not (= x113 (x97 x60 (x97 x60 x113)))) (or (not (= (x97 x60 (x97 x60 x84)) x84)) (not (= (x97 x60 (x97 x60 x60)) x60)))) (not (= (x97 x60 (x97 x60 x4)) x4))))) (or (not (= (x97 x113 (x97 x113 x108)) x108)) (or (or (or (not (= (x97 x113 (x97 x113 x60)) x60)) (not (= x84 (x97 x113 (x97 x113 x84))))) (not (= x113 (x97 x113 (x97 x113 x113))))) (not (= (x97 x113 (x97 x113 x4)) x4)))))) (or (or (or (not (= x113 (x97 x108 (x97 x108 x113)))) (or (not (= x60 (x97 x108 (x97 x108 x60)))) (not (= (x97 x108 (x97 x108 x84)) x84)))) (not (= x4 (x97 x108 (x97 x108 x4))))) (not (= x108 (x97 x108 (x97 x108 x108)))))))
(assert (or (or (= x4 (x97 x4 x4)) (or (or (= x84 (x97 x84 x84)) (= (x97 x60 x60) x60)) (= x113 (x97 x113 x113)))) (= x108 (x97 x108 x108))))
(assert (or (or (or (or (and (not (= (x97 (x97 x108 x84) x108) x108)) (and (and (and (not (= (x97 (x97 x84 x84) x84) x84)) (not (= (x97 (x97 x60 x84) x60) x60))) (not (= (x97 (x97 x113 x84) x113) x113))) (not (= (x97 (x97 x4 x84) x4) x4)))) (and (and (not (= x4 (x97 (x97 x4 x60) x4))) (and (and (not (= (x97 (x97 x60 x60) x60) x60)) (not (= (x97 (x97 x84 x60) x84) x84))) (not (= (x97 (x97 x113 x60) x113) x113)))) (not (= (x97 (x97 x108 x60) x108) x108)))) (and (and (not (= (x97 (x97 x4 x113) x4) x4)) (and (not (= (x97 (x97 x113 x113) x113) x113)) (and (not (= (x97 (x97 x60 x113) x60) x60)) (not (= (x97 (x97 x84 x113) x84) x84))))) (not (= x108 (x97 (x97 x108 x113) x108))))) (and (and (not (= x4 (x97 (x97 x4 x4) x4))) (and (not (= x113 (x97 (x97 x113 x4) x113))) (and (not (= (x97 (x97 x84 x4) x84) x84)) (not (= x60 (x97 (x97 x60 x4) x60)))))) (not (= (x97 (x97 x108 x4) x108) x108)))) (and (and (and (not (= x113 (x97 (x97 x113 x108) x113))) (and (not (= x84 (x97 (x97 x84 x108) x84))) (not (= (x97 (x97 x60 x108) x60) x60)))) (not (= x4 (x97 (x97 x4 x108) x4)))) (not (= (x97 (x97 x108 x108) x108) x108)))))
(assert (and (and (and (not (= x4 x113)) (and (not (= x60 x108)) (and (and (and (not (= x84 x108)) (and (not (= x84 x4)) (and (not (= x113 x84)) (not (= x60 x84))))) (not (= x113 x60))) (not (= x60 x4))))) (not (= x113 x108))) (not (= x4 x108))))
(assert (and (and (and (and (or (or (or (= x113 (x97 x60 x113)) (or (= x84 (x97 x60 x84)) (= x60 (x97 x60 x60)))) (= x4 (x97 x60 x4))) (= x108 (x97 x60 x108))) (or (= x108 (x97 x84 x108)) (or (= (x97 x84 x4) x4) (or (= x113 (x97 x84 x113)) (or (= (x97 x84 x60) x60) (= (x97 x84 x84) x84)))))) (or (= (x97 x113 x108) x108) (or (or (or (= (x97 x113 x84) x84) (= x60 (x97 x113 x60))) (= (x97 x113 x113) x113)) (= x4 (x97 x113 x4))))) (or (or (or (or (= x60 (x97 x4 x60)) (= x84 (x97 x4 x84))) (= x113 (x97 x4 x113))) (= x4 (x97 x4 x4))) (= (x97 x4 x108) x108))) (or (or (or (or (= x60 (x97 x108 x60)) (= x84 (x97 x108 x84))) (= (x97 x108 x113) x113)) (= x4 (x97 x108 x4))) (= (x97 x108 x108) x108))))
(assert (and (or (or (not (= x4 (x97 x108 (x97 x108 x4)))) (or (not (= x113 (x97 x108 (x97 x108 x113)))) (or (not (= (x97 x108 (x97 x108 x60)) x60)) (not (= (x97 x108 (x97 x108 x84)) x84))))) (not (= x108 (x97 x108 (x97 x108 x108))))) (and (and (or (not (= x108 (x97 x113 (x97 x113 x108)))) (or (or (not (= (x97 x113 (x97 x113 x113)) x113)) (or (not (= x60 (x97 x113 (x97 x113 x60)))) (not (= x84 (x97 x113 (x97 x113 x84)))))) (not (= x4 (x97 x113 (x97 x113 x4)))))) (and (or (or (not (= x4 (x97 x60 (x97 x60 x4)))) (or (not (= x113 (x97 x60 (x97 x60 x113)))) (or (not (= x84 (x97 x60 (x97 x60 x84)))) (not (= x60 (x97 x60 (x97 x60 x60))))))) (not (= x108 (x97 x60 (x97 x60 x108))))) (or (not (= (x97 x84 (x97 x84 x108)) x108)) (or (or (or (not (= (x97 x84 (x97 x84 x84)) x84)) (not (= x60 (x97 x84 (x97 x84 x60))))) (not (= x113 (x97 x84 (x97 x84 x113))))) (not (= x4 (x97 x84 (x97 x84 x4)))))))) (or (or (or (or (not (= (x97 x4 (x97 x4 x84)) x84)) (not (= x60 (x97 x4 (x97 x4 x60))))) (not (= (x97 x4 (x97 x4 x113)) x113))) (not (= (x97 x4 (x97 x4 x4)) x4))) (not (= (x97 x4 (x97 x4 x108)) x108))))))
(assert (and (and (= x4 (x97 x113 x108)) (and (= (x97 x108 x4) x60) (= (x97 x113 x113) x84))) (= (x97 x113 x84) x108)))
(assert (let ((x138 (x97 x108 x84)) (x68 (x97 x60 x84)) (x81 (x97 x108 x113)) (x7 (x97 x113 x108)) (x32 (x97 x113 x113)) (x152 (x97 x84 x4)) (x86 (x97 x113 x60)) (x106 (x97 x84 x84)) (x103 (x97 x84 x113)) (x28 (x97 x60 x4)) (x94 (x97 x4 x4)) (x142 (x97 x60 x108)) (x124 (x97 x113 x84)) (x29 (x97 x60 x113)) (x76 (x97 x84 x108)) (x125 (x97 x84 x60)) (x82 (x97 x4 x84)) (x154 (x97 x108 x4)) (x129 (x97 x113 x4)) (x114 (x97 x4 x60)) (x8 (x97 x60 x60)) (x73 (x97 x108 x60)) (x90 (x97 x4 x108)) (x66 (x97 x4 x113)) (x61 (x97 x108 x108))) (let ((x53 (= x8 x113)) (x21 (= x106 x108)) (x133 (= x73 x84)) (x157 (= x113 x86)) (x131 (= x66 x108)) (x13 (= x114 x108)) (x19 (= x125 x108)) (x107 (= x108 x138)) (x52 (= x113 x76)) (x6 (= x103 x113)) (x80 (= x125 x113)) (x48 (= x60 x61)) (x150 (= x32 x60)) (x67 (= x8 x60)) (x41 (= x94 x113)) (x58 (= x4 x32)) (x23 (= x86 x84)) (x12 (= x29 x108)) (x136 (= x82 x4)) (x43 (= x108 x103)) (x71 (= x142 x108)) (x5 (= x60 x114)) (x120 (= x4 x7)) (x155 (= x114 x113)) (x110 (= x108 x61)) (x14 (= x4 x129)) (x116 (= x94 x108)) (x85 (= x84 x32)) (x24 (= x73 x113)) (x3 (= x73 x108)) (x141 (= x154 x4)) (x37 (= x113 x138)) (x1 (= x82 x84)) (x91 (= x68 x113)) (x121 (= x60 x138)) (x128 (= x129 x60)) (x109 (= x4 x142)) (x62 (= x154 x84)) (x16 (= x4 x138)) (x96 (= x81 x113)) (x34 (= x108 x68)) (x38 (= x108 x32)) (x44 (= x113 x66)) (x119 (= x113 x61)) (x59 (= x82 x108)) (x39 (= x68 x84)) (x112 (= x60 x152)) (x100 (= x90 x108)) (x33 (= x76 x108)) (x49 (= x28 x60)) (x17 (= x113 x32)) (x93 (= x29 x113)) (x98 (= x60 x124)) (x148 (= x152 x4)) (x147 (= x60 x7)) (x89 (= x76 x84)) (x78 (= x60 x66)) (x102 (= x113 x90)) (x99 (= x4 x103)) (x87 (= x113 x106)) (x134 (= x113 x142)) (x140 (= x60 x86)) (x95 (= x28 x4)) (x30 (= x84 x124)) (x69 (= x84 x103)) (x123 (= x114 x84)) (x92 (= x4 x29)) (x104 (= x154 x108)) (x137 (= x84 x138)) (x22 (= x4 x94)) (x144 (= x90 x60)) (x74 (= x108 x81)) (x122 (= x152 x108)) (x146 (= x28 x84)) (x64 (= x60 x76)) (x57 (= x28 x113)) (x31 (= x103 x60)) (x158 (= x4 x81)) (x72 (= x129 x113)) (x25 (= x81 x60)) (x115 (= x125 x84)) (x46 (= x29 x60)) (x42 (= x84 x7)) (x51 (= x142 x84)) (x118 (= x60 x142)) (x105 (= x8 x84)) (x126 (= x7 x113)) (x149 (= x84 x61)) (x63 (= x106 x84)) (x26 (= x124 x108)) (x143 (= x4 x125)) (x127 (= x8 x4)) (x151 (= x4 x76)) (x18 (= x90 x4)) (x139 (= x4 x68)) (x45 (= x84 x29)) (x75 (= x60 x68)) (x159 (= x154 x60)) (x55 (= x108 x28)) (x132 (= x124 x113)) (x101 (= x106 x60)) (x56 (= x108 x8)) (x9 (= x84 x90)) (x111 (= x108 x7)) (x65 (= x84 x129)) (x47 (= x94 x60)) (x50 (= x84 x81)) (x11 (= x4 x66)) (x135 (= x60 x125)) (x10 (= x82 x113)) (x153 (= x108 x129)) (x36 (= x4 x61)) (x88 (= x106 x4)) (x27 (= x4 x86)) (x83 (= x86 x108)) (x130 (= x152 x84)) (x117 (= x84 x94)) (x79 (= x113 x152)) (x156 (= x66 x84)) (x15 (= x60 x73)) (x77 (= x124 x4)) (x2 (= x60 x82)) (x70 (= x113 x154)) (x145 (= x114 x4)) (x20 (= x73 x4))) (and (and (or (or (and x36 x36) (or (or (or (and x20 x109) (and x16 x151)) (and x158 x120)) (and x141 x18))) (or (or (or (or (or (or (and x92 x27) (or (and x143 x139) (and x127 x127))) (and x145 x95)) (and x109 x20)) (or (or (or (or (and x88 x88) (and x139 x143)) (and x99 x77)) (and x136 x148)) (and x16 x151))) (or (or (or (and x58 x58) (or (and x99 x77) (and x92 x27))) (and x14 x11)) (and x158 x120))) (or (and x141 x18) (or (and x22 x22) (or (or (and x95 x145) (and x136 x148)) (and x11 x14)))))) (and (and (or (or (or (or (or (or (and x2 x112) (and x5 x49)) (and x78 x128)) (and x47 x47)) (and x159 x144)) (or (or (or (or (or (and x46 x140) (or (and x67 x67) (and x135 x75))) (and x5 x49)) (and x118 x15)) (or (or (or (or (and x75 x135) (and x101 x101)) (and x98 x31)) (and x112 x2)) (and x121 x64))) (or (or (and x78 x128) (or (or (and x98 x31) (and x46 x140)) (and x150 x150))) (and x147 x25)))) (or (and x48 x48) (or (and x159 x144) (or (or (and x15 x118) (and x121 x64)) (and x147 x25))))) (or (or (and x149 x149) (or (and x62 x9) (or (or (and x89 x137) (and x51 x133)) (and x42 x50)))) (or (or (and x62 x9) (or (and x117 x117) (or (and x156 x65) (or (and x123 x146) (and x130 x1))))) (or (or (or (and x89 x137) (or (or (and x69 x30) (or (and x39 x115) (and x63 x63))) (and x1 x130))) (or (and x51 x133) (or (and x146 x123) (or (or (and x39 x115) (and x105 x105)) (and x23 x45))))) (or (or (or (and x85 x85) (or (and x69 x30) (and x23 x45))) (and x65 x156)) (and x42 x50)))))) (or (or (or (and x70 x102) (or (and x41 x41) (or (or (and x155 x57) (and x79 x10)) (and x44 x72)))) (or (or (or (or (or (or (and x80 x91) (and x87 x87)) (and x6 x132)) (and x79 x10)) (and x37 x52)) (or (and x134 x24) (or (and x57 x155) (or (and x93 x157) (or (and x53 x53) (and x80 x91)))))) (or (and x126 x96) (or (or (or (and x93 x157) (and x132 x6)) (and x17 x17)) (and x72 x44))))) (or (and x119 x119) (or (or (or (and x52 x37) (and x24 x134)) (and x126 x96)) (and x70 x102)))))) (or (or (or (or (or (or (or (or (and x34 x19) (and x56 x56)) (and x83 x12)) (and x55 x13)) (and x3 x71)) (or (and x33 x107) (or (and x59 x122) (or (or (and x34 x19) (and x21 x21)) (and x43 x26))))) (or (and x74 x111) (or (and x153 x131) (or (or (and x43 x26) (and x83 x12)) (and x38 x38))))) (or (or (or (and x153 x131) (or (and x122 x59) (and x13 x55))) (and x116 x116)) (and x104 x100))) (or (and x110 x110) (or (and x104 x100) (or (or (and x107 x33) (and x71 x3)) (and x111 x74)))))))))
(assert (not (and (= (x97 x108 x108) x84) (and (= (x97 x108 x4) x60) (and (and (= x108 (x97 x108 x60)) (and (and (and (and (= x108 (x97 x4 x113)) (and (and (= (x97 x4 x84) x113) (and (and (= x113 (x97 x113 x4)) (and (= x84 (x97 x113 x113)) (and (and (and (and (= x84 (x97 x60 x4)) (and (and (and (= (x97 x60 x84) x60) (and (= (x97 x84 x108) x113) (and (= x108 (x97 x84 x4)) (and (= (x97 x84 x113) x60) (and (= (x97 x84 x60) x4) (= x84 (x97 x84 x84))))))) (= (x97 x60 x60) x113)) (= x4 (x97 x60 x113)))) (= x108 (x97 x60 x108))) (= (x97 x113 x84) x108)) (= x60 (x97 x113 x60))))) (= (x97 x113 x108) x4))) (= (x97 x4 x60) x84))) (= x4 (x97 x4 x4))) (= x60 (x97 x4 x108))) (= (x97 x108 x84) x4))) (= (x97 x108 x113) x113))))))
(assert (or (or (and (and (not (= x4 (x97 (x97 x4 x4) x4))) (and (and (not (= x4 (x97 (x97 x60 x4) x60))) (not (= x4 (x97 (x97 x84 x4) x84)))) (not (= (x97 (x97 x113 x4) x113) x4)))) (not (= (x97 (x97 x108 x4) x108) x4))) (or (and (and (and (and (not (= (x97 (x97 x84 x113) x84) x113)) (not (= x113 (x97 (x97 x60 x113) x60)))) (not (= x113 (x97 (x97 x113 x113) x113)))) (not (= (x97 (x97 x4 x113) x4) x113))) (not (= (x97 (x97 x108 x113) x108) x113))) (or (and (not (= (x97 (x97 x108 x84) x108) x84)) (and (not (= x84 (x97 (x97 x4 x84) x4))) (and (not (= x84 (x97 (x97 x113 x84) x113))) (and (not (= x84 (x97 (x97 x60 x84) x60))) (not (= (x97 (x97 x84 x84) x84) x84)))))) (and (and (not (= x60 (x97 (x97 x4 x60) x4))) (and (not (= x60 (x97 (x97 x113 x60) x113))) (and (not (= (x97 (x97 x60 x60) x60) x60)) (not (= x60 (x97 (x97 x84 x60) x84)))))) (not (= (x97 (x97 x108 x60) x108) x60)))))) (and (and (not (= x108 (x97 (x97 x4 x108) x4))) (and (and (not (= x108 (x97 (x97 x60 x108) x60))) (not (= (x97 (x97 x84 x108) x84) x108))) (not (= x108 (x97 (x97 x113 x108) x113))))) (not (= (x97 (x97 x108 x108) x108) x108)))))
(check-sat)
(exit)
